&CONTROL
   calculation      = 'relax'
   verbosity        = 'high'
   restart_mode     = 'restart'
   tstress          = .false.
   tprnfor          = .false.
   prefix           = 'BP_bilayer'
   max_seconds      = 30000
   disk_io          = 'low'
   pseudo_dir       = '/global/homes/l/ltshu/QEspresso/pseudopot'
   tefield          = .true.
   dipfield         = .true.
/
&SYSTEM
   ecutwfc          = 70.0
   occupations      = 'smearing'
   degauss          = 0.01
   smearing         = 'gauss'
   input_dft        = 'vdw-df-c09'
   edir             = 3
   emaxpos          = 0.0
   ntyp             = 1
   nat              = 84
   ibrav            = 0
/
&ELECTRONS
   conv_thr         = 1d-10
   mixing_mode      = 'local-TF'
/
&IONS
   ion_dynamics     = 'bfgs'
/
&CELL
/

ATOMIC_SPECIES
P 30.973761998 P_ONCV_PBE-1.2.upf

K_POINTS automatic
1 12 1  0 0 0

CELL_PARAMETERS angstrom
36.605673817745796 -8.881784197001252e-16 0.0
0.5834837774040815 4.5845788808903984 0.0
0.0 0.0 30.0

ATOMIC_POSITIONS (angstrom)
P        0.00000000       0.00000000      13.50000000     
P        1.82574418       1.27169550      13.50000000
P        0.48011379       3.77237489      11.39112000      
P        1.92911416       2.08389949      11.39112000        
P        5.10048873       0.85491560      13.50000000       
P        3.75485834       3.35559499      11.39112000       
P        5.20385871       1.66711959      11.39112000     
P        3.85822833       4.16779898      13.50000000   
P        8.37523328       0.43813570      13.50000000   
P        7.02960289       2.93881509      11.39112000     
P        8.47860326       1.25033969      11.39112000   
P        7.13297288       3.75101908      13.50000000   
P       11.64997782       0.02135580      13.50000000       
P       10.30434744       2.52203519      11.39112000     
P       11.75334781       0.83355980      11.39112000   
P       10.40771742       3.33423919      13.50000000   
P       13.57909199       2.10525529      11.39112000     
P       15.02809236       0.41677990      11.39112000  
P       13.68246197       2.91745929      13.50000000      
P       15.50820615       4.18915478      13.50000000               
P       16.85383654       1.68847540      11.39112000              
P       18.30283691      -0.00000000      11.39112000              
P       16.95720652       2.50067939      13.50000000               
P       18.78295070       3.77237489      13.50000000         
P       20.12858109       1.27169550      11.39112000        
P       20.23195107       2.08389949      13.50000000       
P       22.05769525       3.35559499      13.50000000              
P       22.16106524       4.16779898      11.39112000        
P       23.40332564       0.85491560      11.39112000       
P       23.50669562       1.66711959      13.50000000              
P       25.33243980       2.93881509      13.50000000               
P       25.43580978       3.75101908      11.39112000              
P       26.67807018       0.43813570      11.39112000                
P       26.78144017       1.25033969      13.50000000                
P       28.60718435       2.52203519      13.50000000                
P       28.71055433       3.33423919      11.39112000       
P       29.95281473       0.02135580      11.39112000       
P       30.05618472       0.83355980      13.50000000   
P       31.88192890       2.10525529      13.50000000     
P       31.98529888       2.91745929      11.39112000      
P       33.33092927       0.41677990      13.50000000       
P       35.15667345       1.68847540      13.50000000  
P       33.81104306       4.18915478      11.39112000      
P       35.26004343       2.50067939      11.39112000      
P        0.00000000       0.00000000      18.60888000    
P        2.01865559       1.48008545      18.60888000     
P        0.48011379       3.77237489      16.50000000      
P        2.12202558       2.29228944      16.50000000    
P        3.66056738      -0.00000000      18.60888000  
P        5.67922298       1.48008545      18.60888000    
P        4.14068117       3.77237489      16.50000000       
P        5.78259296       2.29228944      16.50000000       
P        7.32113476      -0.00000000      18.60888000 
P        9.33979036       1.48008545      18.60888000      
P        7.80124855       3.77237489      16.50000000     
P        9.44316034       2.29228944      16.50000000   
P       10.98170215      -0.00000000      18.60888000   
P       13.00035774       1.48008545      18.60888000    
P       11.46181594       3.77237489      16.50000000       
P       13.10372772       2.29228944      16.50000000     
P       14.64226953      -0.00000000      18.60888000        
P       16.66092512       1.48008545      18.60888000               
P       15.12238332       3.77237489      16.50000000             
P       16.76429511       2.29228944      16.50000000               
P       18.30283691      -0.00000000      18.60888000             
P       20.32149250       1.48008545      18.60888000           
P       18.78295070       3.77237489      16.50000000       
P       20.42486249       2.29228944      16.50000000      
P       21.96340429      -0.00000000      18.60888000      
P       23.98205988       1.48008545      18.60888000      
P       22.44351808       3.77237489      16.50000000    
P       24.08542987       2.29228944      16.50000000  
P       25.62397167      -0.00000000      18.60888000    
P       27.64262727       1.48008545      18.60888000     
P       26.10408546       3.77237489      16.50000000     
P       27.74599725       2.29228944      16.50000000     
P       29.28453905      -0.00000000      18.60888000     
P       31.30319465       1.48008545      18.60888000   
P       29.76465285       3.77237489      16.50000000   
P       31.40656463       2.29228944      16.50000000  
P       32.94510644      -0.00000000      18.60888000     
P       34.96376203       1.48008545      18.60888000     
P       33.42522023       3.77237489      16.50000000     
P       35.06713202       2.29228944      16.50000000   